InboundTrucks  = 120;
OutboundTrucks = 60;
InboundDoors   = 16;
OutboundDoors  = 16;
ReleaseTime    = [222,246,50,274,254,239,360,115,265,92,50,100,116,64,321,349,103,298,164,3,260,152,165,320,141,171,44,53,41,310,149,114,156,10,344,272,357,71,153,275,305,186,59,244,156,356,155,48,37,105,52,348,307,74,256,343,186,218,183,340,217,2,265,55,173,122,281,331,132,44,114,255,268,182,271,298,84,248,239,35,238,42,130,235,154,236,191,208,139,156,192,152,290,78,66,166,116,10,87,317,40,80,0,278,343,139,309,101,171,135,165,261,176,204,18,207,237,269,40,42];
UnloadTime     = [2,5,7,21,11,8,5,10,2,17,1,17,6,2,9,8,5,14,7,4,1,3,4,4,16,1,2,3,5,9,15,25,19,11,3,4,4,8,23,8,17,5,2,11,16,25,25,2,5,10,25,5,12,4,17,19,3,10,23,1,3,18,2,13,13,2,1,14,24,4,2,6,23,4,22,14,10,1,14,12,4,4,5,4,10,11,4,11,12,1,5,11,18,8,19,9,3,1,18,4,5,5,1,3,3,20,5,1,9,2,1,1,2,4,3,1,20,12,9,4];
LoadTime       = [10,5,4,11,7,11,14,8,11,10,5,2,15,14,11,5,5,3,13,5,1,2,8,2,1,12,14,5,4,1,4,9,15,9,8,4,4,5,10,11,10,1,10,16,15,8,11,6,3,9,1,18,2,4,3,20,2,4,5,18];
TransferTime   = [| 2,7,0,0,0,0,0,0,0,0,5,0,0,0,0,0,0,0,0,8,0,5,0,0,0,4,3,0,0,0,0,0,0,0,0,0,0,0,0,5,0,2,2,5,4,0,0,0,3,0,0,0,0,0,0,0,0,7,0,5 | 0,0,0,0,0,0,0,0,0,5,5,0,0,0,0,0,0,0,0,0,6,0,0,0,0,5,5,0,0,0,0,0,0,0,0,4,5,0,0,0,4,0,0,0,0,0,0,0,0,0,0,0,0,0,0,0,1,0,0,0 | 0,0,0,6,4,6,0,0,0,0,0,0,0,3,0,1,0,0,7,0,1,0,0,0,0,0,0,0,0,0,1,0,5,0,0,0,0,0,5,0,0,0,0,4,0,2,5,0,0,0,0,4,0,0,0,0,0,0,0,0 | 0,0,0,0,0,0,0,0,0,6,0,3,0,0,0,14,0,0,0,0,1,0,0,7,0,0,0,0,0,2,0,0,0,0,0,0,0,0,0,2,4,3,0,0,0,2,0,0,0,0,0,4,8,0,0,0,0,0,0,0 | 0,0,0,0,0,4,0,0,0,0,0,0,0,0,0,0,0,0,0,0,5,0,0,0,0,0,0,0,0,12,0,1,0,0,0,0,0,0,0,2,0,8,0,0,0,0,0,0,2,0,0,0,0,0,0,0,5,3,0,3 | 0,2,0,0,0,0,0,0,3,0,0,0,0,6,0,0,0,2,3,1,0,0,0,1,2,5,0,0,5,0,0,0,0,0,2,0,0,0,0,0,0,7,0,0,0,0,5,0,0,0,2,0,0,0,0,0,0,0,0,0 | 0,0,0,7,0,0,1,0,0,3,5,0,0,0,0,0,0,0,0,0,0,0,0,0,0,0,0,0,1,0,0,0,0,0,2,0,0,2,0,0,0,0,0,0,0,0,0,0,0,2,0,0,0,0,0,0,0,0,0,0 | 0,0,0,0,3,0,6,0,0,0,0,1,0,0,0,2,0,0,0,0,5,0,0,0,0,0,0,0,0,0,1,0,0,0,0,0,0,0,0,0,0,3,3,0,0,0,0,0,0,0,0,0,0,0,0,0,0,0,0,0 | 0,5,0,1,0,5,0,8,0,0,0,0,0,0,0,0,0,0,0,4,0,1,0,0,0,5,0,0,0,0,7,0,9,0,0,0,4,0,2,4,0,0,2,0,0,0,0,0,5,0,0,0,0,4,0,0,0,5,0,0 | 0,0,0,1,0,0,0,0,0,2,5,0,1,0,5,0,0,0,0,6,0,5,4,0,0,4,0,0,0,6,0,0,0,0,0,0,0,0,0,0,0,0,0,0,0,0,4,0,0,0,0,0,0,0,5,0,0,0,0,8 | 1,0,0,0,0,0,0,0,3,0,0,0,0,0,0,4,0,0,0,0,0,5,0,0,0,1,0,0,0,0,0,0,0,2,0,0,0,2,0,4,0,2,0,12,8,2,0,0,0,0,0,0,0,0,0,0,0,0,0,0 | 0,0,0,0,0,0,0,0,0,0,2,0,4,0,0,0,0,0,0,0,0,0,2,0,0,0,4,5,1,0,0,0,0,0,0,1,3,0,0,0,0,5,0,0,0,0,3,0,0,0,4,0,0,0,4,0,0,0,2,0 | 0,0,0,0,2,0,0,1,0,0,0,5,0,0,0,0,0,0,14,0,0,0,0,0,0,0,0,0,0,0,2,0,0,0,0,0,0,0,0,0,1,2,1,0,0,0,0,0,0,0,0,0,1,0,4,0,0,0,0,0 | 0,0,0,0,0,0,0,0,0,0,0,0,0,0,0,0,0,0,0,5,0,0,0,0,0,8,0,0,2,0,0,0,0,0,3,0,0,5,0,0,2,0,0,7,2,0,0,0,0,0,0,0,0,0,0,0,0,0,0,0 | 0,0,0,0,0,0,3,0,0,0,5,0,2,0,0,0,0,0,0,0,4,0,0,0,0,0,0,0,0,0,0,0,0,0,0,0,4,0,0,0,0,0,0,0,0,0,0,0,0,0,0,0,1,0,0,0,0,0,0,0 | 0,0,0,0,0,5,0,0,1,0,0,1,0,0,0,0,4,3,0,0,0,0,0,0,2,0,0,2,0,0,0,0,0,0,0,0,0,0,0,2,7,0,0,0,0,0,0,0,0,0,0,0,2,0,0,0,5,0,0,1 | 0,0,4,2,0,0,0,0,0,0,3,0,0,0,0,0,0,0,0,0,0,0,0,0,0,0,0,6,0,1,0,0,5,0,0,0,0,0,3,4,0,0,0,0,0,0,1,0,0,0,1,0,8,0,0,2,5,0,0,0 | 0,0,0,0,0,6,0,0,0,1,2,0,0,0,1,0,0,3,0,8,0,0,0,0,0,0,2,0,3,0,0,0,5,0,0,0,0,0,0,0,6,0,0,8,0,3,2,0,0,0,0,0,0,0,3,0,0,0,0,0 | 0,0,0,0,0,0,0,0,0,0,0,8,0,0,0,0,0,0,0,0,1,0,0,0,0,0,0,0,0,0,0,0,0,0,0,0,0,0,0,5,0,0,0,0,0,0,0,0,14,0,0,0,0,3,7,0,2,5,0,0 | 0,0,4,0,0,0,0,6,0,0,0,0,0,0,0,0,4,1,3,3,0,0,0,1,1,0,0,2,4,0,0,0,7,0,0,0,0,0,0,0,0,0,0,0,0,0,0,4,6,1,0,0,15,0,0,0,0,0,0,0 | 0,0,0,0,4,0,0,0,0,0,5,0,8,2,0,1,0,0,0,0,4,0,0,0,0,3,0,2,0,0,0,0,0,0,0,0,0,7,0,0,0,0,3,1,0,3,0,0,0,0,0,13,0,0,0,0,5,0,0,0 | 6,0,0,7,0,0,0,0,0,0,0,0,5,0,0,0,0,0,0,0,0,0,10,0,0,0,5,0,0,8,0,0,0,0,0,10,1,0,0,0,0,0,0,0,0,0,0,0,0,0,0,0,1,5,3,0,0,5,0,0 | 0,0,0,0,0,0,0,0,0,4,0,0,3,0,3,0,0,0,2,0,0,0,5,0,0,0,5,0,0,0,0,0,3,6,0,2,4,0,4,0,0,0,0,1,0,0,0,0,0,0,0,0,0,1,0,0,4,0,0,0 | 0,0,0,0,0,0,0,0,0,0,0,5,0,0,0,0,1,2,1,0,0,1,1,0,0,0,5,0,0,0,3,0,7,1,0,0,1,8,0,0,0,2,0,2,1,1,0,0,0,0,7,5,0,0,5,0,0,0,6,0 | 0,1,0,0,0,4,0,0,0,0,0,0,0,0,0,0,0,0,0,0,0,0,1,0,0,0,0,0,0,1,0,0,0,0,0,3,0,0,0,0,8,0,0,0,0,0,0,0,2,0,6,0,0,0,1,0,0,0,3,0 | 0,0,0,0,0,0,0,0,0,0,0,0,0,12,0,0,5,4,5,5,0,0,0,1,0,0,0,3,0,0,0,0,0,0,0,0,0,0,3,0,0,0,0,0,0,0,0,5,0,0,4,0,0,0,0,0,0,0,0,1 | 8,0,0,0,3,0,0,0,0,0,0,1,0,2,0,0,0,0,7,5,0,0,0,0,0,0,0,3,0,0,1,4,0,0,0,0,3,4,0,0,2,0,0,0,0,0,0,0,0,0,0,2,2,0,0,0,0,0,0,15 | 0,0,0,0,0,0,0,0,5,0,0,0,0,0,0,0,3,1,1,3,0,0,6,0,0,0,0,2,0,0,0,0,3,0,0,0,0,0,0,5,0,8,0,0,0,0,2,3,0,0,1,0,3,0,4,0,0,0,0,2 | 8,0,0,4,0,0,5,0,0,0,0,0,6,0,0,0,0,0,0,0,0,3,0,1,0,0,6,0,0,0,0,5,0,0,0,0,0,1,0,5,0,0,0,0,0,0,0,0,2,0,0,0,0,0,0,0,0,4,2,3 | 0,0,0,0,6,0,0,0,0,0,4,0,4,0,3,0,0,0,0,0,0,0,2,4,0,0,0,0,0,14,0,0,5,0,15,0,2,0,6,0,0,0,0,0,0,0,2,0,0,0,0,8,0,0,4,4,0,0,0,0 | 5,0,0,0,0,0,0,0,2,0,1,0,0,0,0,0,0,0,0,0,0,7,0,4,2,0,0,0,1,0,0,0,0,2,0,0,0,0,0,0,0,0,0,0,2,0,0,0,0,0,0,0,0,0,0,0,0,8,0,3 | 0,0,0,0,0,0,0,2,0,0,0,0,3,7,0,0,0,6,0,0,0,0,0,0,0,0,0,0,2,0,0,1,0,0,0,0,0,2,0,0,4,0,0,0,3,0,0,0,0,8,0,0,0,0,0,3,0,0,1,0 | 0,4,0,5,0,0,0,13,0,0,0,0,0,0,0,0,0,0,2,0,0,0,0,7,0,0,0,0,0,1,0,0,0,0,0,6,0,0,5,0,3,0,0,0,0,0,0,1,10,0,0,0,0,9,3,0,0,0,4,0 | 0,0,0,0,0,0,1,0,0,0,0,0,2,0,0,0,5,2,0,0,0,0,0,0,0,6,0,4,0,0,0,0,0,0,0,0,0,0,0,2,0,0,0,0,2,0,0,0,0,0,0,3,0,0,0,0,0,0,0,2 | 3,0,0,0,6,0,0,1,0,0,0,0,0,0,0,0,4,0,0,0,0,0,2,0,0,0,0,0,3,0,0,1,0,2,1,0,0,0,13,0,0,0,0,0,4,0,0,0,6,0,0,0,0,0,0,2,0,0,0,0 | 0,3,0,0,0,4,0,0,2,0,0,1,10,0,0,5,5,0,4,3,0,1,1,0,2,0,0,5,0,0,8,0,0,8,0,0,0,0,0,0,0,0,0,0,0,0,0,0,0,0,0,0,0,0,0,0,0,0,5,0 | 0,0,0,0,0,0,0,0,0,0,0,0,0,0,0,0,0,0,0,0,0,2,0,0,5,0,0,0,0,4,4,0,0,0,0,0,0,0,4,2,0,0,0,0,0,1,0,0,0,0,0,0,0,1,0,0,0,0,4,0 | 0,0,0,0,7,0,0,4,0,0,0,0,5,0,0,0,0,0,0,0,2,2,0,0,0,0,0,0,2,8,0,0,0,4,1,0,0,5,0,0,0,0,0,0,5,0,0,0,0,2,0,0,4,0,7,1,5,0,5,0 | 0,0,0,0,0,0,0,0,0,0,5,0,5,8,5,0,4,0,0,5,0,0,0,0,0,0,0,0,0,0,0,0,5,1,0,3,0,0,0,0,0,0,0,0,0,6,0,0,0,0,8,0,0,5,2,0,6,0,0,0 | 2,0,0,0,0,0,3,0,0,0,0,0,0,0,0,0,0,0,0,0,0,0,0,0,0,2,0,5,3,0,0,5,0,4,5,0,0,0,0,0,4,0,0,0,0,0,0,0,0,4,7,0,0,0,0,0,4,0,0,0 | 0,0,0,0,0,0,0,0,0,0,0,0,0,12,0,5,0,0,0,0,4,0,0,0,0,5,0,0,0,0,2,0,6,0,0,0,0,0,5,0,0,5,0,0,0,4,0,0,0,4,0,0,0,0,0,0,0,0,0,0 | 0,0,4,3,0,1,0,0,1,0,3,0,0,0,0,0,0,0,6,4,0,2,0,0,0,0,0,0,0,0,0,0,0,0,0,0,0,0,1,3,0,0,0,0,0,0,0,7,4,0,0,0,0,0,0,0,3,3,0,0 | 0,0,0,0,0,0,0,0,0,0,3,0,4,0,3,0,5,4,0,0,0,0,2,0,0,0,2,0,0,0,0,0,2,0,0,0,0,0,0,0,0,0,0,0,0,0,0,0,10,0,0,0,0,2,2,5,0,0,0,0 | 0,8,0,0,0,0,5,0,0,0,0,0,0,0,2,0,0,0,0,0,0,0,0,0,0,2,0,0,0,0,0,0,0,5,0,0,0,4,0,0,2,0,0,0,0,0,0,0,0,0,0,0,0,0,0,2,0,3,0,0 | 0,0,4,0,0,2,0,0,3,0,0,0,0,0,0,2,1,2,2,2,0,0,0,0,12,0,0,5,0,0,0,0,0,0,0,0,0,5,0,0,0,0,7,0,0,0,0,4,0,0,2,0,5,0,0,0,0,0,0,0 | 7,0,0,0,0,0,0,0,1,0,0,0,0,0,0,0,0,0,0,0,0,0,0,0,0,0,11,0,1,0,0,0,2,0,8,3,0,0,0,0,0,0,0,0,0,0,0,0,0,0,0,3,0,1,0,0,0,0,0,0 | 0,0,6,0,2,0,0,0,0,0,0,1,0,2,0,0,0,0,0,0,3,0,0,0,0,4,0,0,0,0,1,0,0,0,0,0,0,0,0,0,0,5,0,4,0,0,0,0,2,0,0,0,0,0,0,0,0,0,0,0 | 8,0,0,0,2,0,0,0,0,0,0,4,3,1,0,5,0,10,0,0,0,1,0,0,0,2,0,0,0,6,1,0,0,0,2,0,0,0,0,0,0,3,2,0,0,0,0,0,0,0,0,0,7,1,0,0,3,0,0,0 | 0,9,0,0,0,0,4,0,0,0,0,0,0,0,0,0,0,0,3,0,0,0,6,0,0,0,0,0,2,0,0,5,0,3,0,0,0,1,0,0,0,0,0,0,3,0,0,0,0,2,0,0,0,0,0,0,0,0,0,0 | 0,1,0,2,0,1,0,0,0,0,0,0,0,0,0,0,0,0,0,0,0,5,0,0,0,0,2,0,2,3,0,0,0,0,0,0,0,0,0,3,0,0,0,0,0,0,0,0,0,0,0,0,0,0,0,0,0,2,0,0 | 7,0,0,0,0,8,0,0,4,0,0,0,0,0,0,0,12,2,0,0,0,0,0,0,0,0,0,0,0,0,0,0,0,0,0,0,0,0,0,0,0,0,0,0,0,0,0,5,1,0,5,0,4,0,0,0,0,0,0,0 | 0,0,0,0,6,3,0,0,0,0,0,0,0,0,0,0,5,13,3,3,0,0,0,0,0,0,0,0,0,0,0,0,0,3,0,0,0,0,0,0,0,0,0,0,0,5,0,0,0,0,3,0,3,0,0,0,0,0,0,5 | 5,0,4,0,0,0,0,0,0,0,0,0,0,0,0,0,0,0,0,0,0,0,0,0,0,0,4,0,0,0,0,4,5,0,0,0,0,9,0,0,2,0,0,0,0,0,0,0,5,5,0,0,0,0,0,0,0,0,0,0 | 2,0,0,0,0,0,0,0,0,0,0,0,0,0,0,0,0,0,0,0,0,0,4,0,0,0,1,0,0,0,0,0,5,0,0,5,3,0,6,0,0,0,0,0,0,0,0,0,0,0,0,0,0,2,0,0,0,0,0,0 | 0,0,0,0,2,0,0,0,2,0,0,0,0,0,0,0,0,5,0,1,0,0,0,1,0,0,0,0,0,0,0,7,0,0,0,0,0,0,0,3,0,0,8,0,0,0,0,5,0,0,4,0,1,0,0,0,5,0,0,4 | 0,0,0,0,3,0,0,0,0,0,0,0,0,1,0,0,0,0,0,0,0,0,0,0,0,0,0,0,0,0,0,6,0,0,0,0,0,0,1,0,2,4,4,0,4,5,6,0,0,0,0,0,0,5,0,0,0,0,0,0 | 0,0,2,0,8,3,0,0,0,0,0,0,8,0,0,0,0,0,0,0,0,1,5,2,0,0,0,0,2,0,0,0,0,0,0,0,0,3,0,0,0,0,0,0,0,0,0,0,2,0,0,4,0,0,0,0,0,2,3,0 | 1,7,0,0,0,3,0,0,0,1,0,0,0,0,0,0,4,0,0,0,0,0,6,0,0,0,0,0,0,0,0,3,0,11,0,8,0,5,0,0,4,0,0,0,0,0,0,0,0,5,0,0,0,0,0,0,0,0,0,0 | 0,0,0,3,0,0,0,0,0,0,4,0,0,0,1,0,0,0,0,0,0,0,4,0,0,0,0,0,0,0,0,0,0,0,0,4,2,0,0,0,0,0,0,0,0,0,3,0,0,0,0,0,0,3,2,0,0,0,0,0 | 0,2,5,4,0,0,1,0,0,0,0,0,0,0,0,0,7,0,0,0,0,2,0,0,0,4,0,3,7,0,0,0,0,0,0,0,0,0,3,0,0,0,1,0,0,7,0,0,5,0,7,0,8,0,0,0,0,0,4,0 | 0,0,5,4,3,0,0,4,0,0,0,0,6,0,0,0,4,8,0,3,0,0,0,6,0,0,0,0,0,0,0,0,0,5,2,0,0,0,0,0,2,0,0,0,3,0,0,0,0,4,0,0,0,0,2,0,0,1,0,0 | 0,0,0,0,3,0,0,0,0,0,3,0,0,3,7,0,0,0,0,0,2,0,0,0,0,0,0,6,0,0,3,6,0,0,0,0,0,0,0,0,5,2,15,3,0,5,0,0,0,0,0,4,0,0,0,0,0,0,0,0 | 0,0,5,4,0,5,0,0,0,0,0,0,0,0,0,0,0,0,0,0,0,0,0,1,0,0,0,0,15,0,0,6,0,0,5,0,0,0,4,10,0,0,0,0,0,0,0,0,0,0,0,1,0,0,0,3,0,0,0,0 | 3,0,0,0,0,6,0,0,0,0,0,0,0,0,0,0,0,0,0,0,0,0,0,0,0,0,0,0,1,2,0,0,3,0,2,0,0,0,0,0,1,0,0,6,0,0,2,0,0,0,0,0,0,0,0,3,0,0,0,0 | 0,5,1,0,0,0,4,0,0,0,2,0,0,0,0,0,0,0,0,0,0,0,0,0,0,0,0,0,0,3,0,8,0,0,0,0,0,0,0,0,6,0,0,0,0,0,7,0,4,12,0,7,0,0,0,0,5,0,3,0 | 0,4,0,0,0,1,0,0,0,0,8,0,0,0,0,0,0,0,0,0,0,4,0,0,0,0,0,0,0,2,4,0,0,0,0,0,0,0,2,4,0,4,0,0,0,0,0,0,0,0,0,0,0,0,0,0,0,0,0,0 | 0,0,0,5,0,0,0,0,0,0,0,0,0,4,0,1,0,1,0,0,0,0,0,0,0,0,0,0,0,0,0,0,4,0,0,0,0,0,0,0,0,0,0,2,0,4,0,0,0,0,0,5,0,0,0,0,0,1,0,0 | 4,0,0,0,7,0,1,0,0,0,0,0,0,0,0,0,8,0,4,0,6,0,0,0,0,0,0,0,2,0,0,4,0,2,5,0,0,1,0,0,0,0,0,0,2,0,0,0,2,0,0,0,0,0,3,1,0,0,0,0 | 0,0,0,0,0,0,0,0,0,0,3,0,0,0,0,0,0,0,0,0,0,0,0,0,0,0,0,0,0,0,0,0,0,0,0,5,0,0,0,0,0,0,0,0,0,0,0,0,0,1,0,0,0,4,5,0,0,0,0,0 | 0,0,0,0,0,0,0,0,0,0,0,0,0,0,0,4,0,5,0,0,0,0,6,0,0,0,0,0,0,0,3,0,0,0,0,0,0,5,0,0,0,0,5,0,0,3,0,5,0,0,0,2,0,0,2,0,0,0,2,0 | 0,0,0,0,1,0,0,0,2,0,0,0,0,0,0,0,0,1,0,4,0,0,0,0,0,3,5,2,4,0,0,0,0,0,0,0,0,0,0,0,6,0,0,0,0,0,0,1,0,0,0,0,4,0,0,0,0,0,0,0 | 0,0,0,0,0,1,0,1,0,0,0,0,0,0,0,3,2,0,0,5,0,0,0,0,5,0,0,2,0,0,0,0,0,0,0,0,0,0,0,0,0,0,0,0,0,0,0,4,0,0,0,0,0,0,0,0,0,0,3,0 | 0,0,0,0,0,0,0,8,0,4,4,0,0,0,0,0,0,0,0,0,2,0,0,0,0,0,1,0,0,7,0,0,0,4,0,3,0,0,0,0,0,0,0,0,0,0,10,12,0,0,0,5,0,3,2,0,0,0,0,0 | 1,0,0,0,0,0,0,0,0,0,0,0,0,0,0,0,0,5,0,0,0,0,0,3,5,1,0,0,0,0,0,0,0,2,0,0,0,0,0,0,0,0,0,0,0,0,0,3,0,2,1,0,5,0,0,0,0,0,0,0 | 2,0,0,0,0,0,0,0,0,4,1,0,3,8,0,1,0,0,0,0,0,0,2,0,0,0,4,0,0,2,0,0,0,0,0,5,0,0,0,0,0,0,7,0,0,0,0,0,0,0,6,0,0,0,2,0,0,8,0,0 | 7,0,0,0,1,3,0,0,0,7,0,0,0,0,0,0,0,0,2,0,1,0,0,0,0,0,0,0,0,0,1,0,0,0,0,0,1,0,0,0,0,4,1,2,6,2,0,0,0,0,0,0,0,0,0,0,0,4,0,0 | 0,2,4,0,0,0,0,0,0,0,0,0,0,8,0,0,0,0,0,0,0,0,0,0,0,8,0,0,0,0,0,0,0,0,0,0,0,0,5,1,0,0,7,0,3,0,0,4,0,0,0,0,0,0,0,0,0,0,2,0 | 0,3,0,0,4,0,8,0,0,0,0,0,9,0,0,1,7,0,0,0,3,0,0,0,0,3,0,0,0,0,0,0,0,9,0,0,0,0,0,0,6,2,2,1,0,5,0,0,0,0,0,0,0,0,0,4,0,0,2,0 | 0,0,0,0,7,0,0,0,0,2,2,0,0,0,0,0,0,0,0,0,0,8,0,0,0,0,0,1,0,0,0,5,0,0,0,5,2,0,0,0,0,0,0,0,5,0,0,0,0,0,0,0,0,3,5,0,2,0,4,0 | 0,0,10,0,0,0,2,0,0,0,0,0,3,0,0,0,0,0,0,0,0,0,3,0,0,0,0,0,0,0,0,0,0,0,0,2,4,0,7,0,7,0,0,0,0,0,3,0,0,0,0,0,0,4,1,0,0,0,0,0 | 0,0,0,1,4,0,0,0,0,8,0,0,0,0,0,12,0,1,0,0,3,0,0,0,0,0,0,0,0,0,0,0,0,0,0,1,0,0,0,8,0,5,0,0,0,0,0,0,0,0,0,4,0,0,0,0,0,5,2,0 | 0,0,0,0,0,0,0,0,0,0,0,0,5,0,0,0,0,0,0,0,0,0,0,0,0,0,4,0,0,3,0,0,0,0,0,5,0,0,0,0,0,0,3,0,0,0,3,0,0,0,0,0,0,0,0,0,0,5,0,0 | 0,4,1,0,0,3,0,0,0,0,0,0,0,0,0,0,0,0,0,2,6,3,0,0,0,0,0,0,0,0,0,0,0,0,0,0,0,0,0,0,0,0,0,0,0,0,0,0,0,0,6,0,0,0,7,0,0,0,1,0 | 0,0,0,0,5,0,0,0,0,5,0,2,0,2,0,5,0,0,0,0,0,0,0,7,0,5,0,0,1,0,3,8,0,0,0,0,0,0,0,0,0,2,3,0,0,0,0,0,4,0,0,15,0,0,0,0,0,0,0,0 | 0,0,0,0,0,0,0,1,1,0,0,0,11,0,0,0,5,5,0,4,0,0,0,0,1,0,0,0,0,0,0,0,0,0,0,0,0,8,0,0,0,0,0,3,0,0,0,0,0,0,3,0,11,0,0,2,0,0,0,5 | 2,3,0,0,0,0,0,0,0,0,0,0,0,0,7,0,2,0,0,0,0,0,0,0,0,0,0,0,0,0,0,4,0,0,1,0,0,0,0,0,5,2,0,0,0,0,0,0,0,1,0,0,0,0,0,4,0,0,0,7 | 0,0,2,0,0,4,0,3,0,1,0,0,0,0,0,0,0,0,0,0,0,0,0,0,8,0,0,0,0,0,0,8,0,9,0,0,0,0,0,0,0,0,0,0,0,7,0,0,4,0,6,0,0,5,0,0,0,0,15,0 | 0,0,0,8,5,1,0,0,1,0,0,1,0,0,0,0,0,3,4,0,0,0,0,5,2,0,0,4,0,0,0,0,15,0,0,0,0,14,0,0,0,8,0,0,0,0,0,4,0,0,0,0,0,0,0,0,0,0,0,0 | 0,0,0,2,3,0,1,0,0,6,0,3,0,0,0,0,0,0,0,1,0,0,0,0,0,0,0,0,5,0,0,2,0,3,0,0,0,0,6,0,4,0,0,0,2,0,0,0,0,5,0,4,0,0,0,0,0,0,0,0 | 0,0,0,3,0,0,0,0,0,0,0,0,0,0,0,0,0,0,7,0,5,14,0,0,0,5,0,0,0,0,0,0,0,0,0,0,4,0,0,0,0,0,12,4,0,4,0,0,0,0,7,0,0,0,0,0,0,0,0,0 | 0,0,0,5,0,0,0,0,0,0,0,0,0,0,0,0,0,5,7,0,0,0,0,0,0,0,0,0,0,0,8,0,0,0,0,0,0,0,0,0,0,0,2,0,0,0,0,0,3,0,0,0,0,0,0,0,4,0,2,11 | 0,0,5,2,0,0,0,0,0,0,0,0,0,0,8,0,0,0,0,0,0,0,0,0,0,5,0,0,0,0,0,0,0,0,0,0,5,0,0,2,0,0,0,0,0,0,0,5,0,0,0,0,0,0,0,0,2,3,0,0 | 0,0,0,0,0,0,0,5,0,0,0,0,0,0,0,0,4,5,2,0,0,0,0,2,4,0,0,1,0,0,0,0,6,0,0,0,0,0,0,0,0,0,0,0,0,0,4,5,0,0,0,6,0,5,0,0,0,5,5,4 | 0,0,0,0,0,0,0,0,0,0,5,6,0,0,0,0,0,0,0,0,0,0,0,0,0,0,0,0,0,0,0,0,0,0,3,4,2,0,0,0,0,0,0,0,4,0,0,0,8,0,0,0,0,2,0,0,1,0,0,0 | 1,0,1,0,0,0,0,1,0,0,0,0,0,0,0,0,8,0,0,0,0,0,0,0,0,0,0,0,5,4,0,1,0,5,3,0,0,2,0,0,1,2,0,0,9,4,0,0,0,4,0,0,0,8,0,3,0,0,0,0 | 0,6,1,0,3,0,0,0,0,0,2,7,6,0,0,0,2,0,1,0,0,0,0,3,10,8,0,1,0,0,0,0,0,0,0,0,0,0,0,0,0,0,0,6,0,0,0,0,0,0,4,0,1,0,0,11,0,0,0,2 | 1,0,0,0,0,0,2,2,0,0,0,0,0,0,0,0,8,0,0,0,0,0,0,0,0,11,0,0,3,0,0,4,0,4,0,0,0,3,4,0,0,0,0,0,0,0,0,0,0,1,0,0,15,6,0,5,0,0,1,0 | 0,0,0,0,0,0,0,0,8,0,0,0,0,1,0,0,4,5,0,0,0,6,0,0,0,0,0,0,0,7,0,0,0,0,0,0,0,0,0,0,0,9,0,0,0,0,0,3,0,0,1,0,4,0,0,0,0,0,0,0 | 4,0,0,0,0,0,0,0,0,0,0,0,0,1,0,0,0,2,3,0,2,0,0,0,0,5,0,0,0,0,0,4,0,0,0,1,0,0,0,0,0,0,1,4,0,0,0,0,0,0,0,5,0,0,0,0,0,0,0,0 | 0,3,0,1,0,2,4,0,0,6,0,0,0,0,0,0,1,0,0,0,4,0,0,0,0,0,0,0,0,1,0,0,0,6,0,0,0,0,0,1,0,0,0,0,0,0,0,0,0,0,0,0,0,0,0,6,0,0,0,0 | 5,0,4,0,0,11,0,0,0,0,0,0,0,0,0,2,0,0,0,0,0,0,0,0,0,0,0,0,0,2,0,0,0,0,8,0,0,0,0,1,3,0,4,0,0,0,0,0,0,0,0,0,0,0,0,0,0,4,4,0 | 0,7,0,0,0,0,0,0,0,3,3,0,0,0,0,0,0,0,0,0,0,0,0,0,0,0,0,0,3,2,0,0,3,4,0,0,0,3,0,0,0,0,0,0,0,0,2,0,0,0,0,0,0,3,4,0,0,0,0,0 | 0,0,0,0,0,0,0,0,0,5,0,0,3,0,2,0,0,0,0,0,2,0,0,0,0,0,1,0,0,0,0,0,0,0,0,0,0,0,0,0,0,0,0,0,7,6,2,0,8,0,1,0,0,0,3,0,2,0,0,0 | 4,0,0,0,0,0,5,0,0,0,0,3,0,0,0,0,0,0,0,0,0,0,0,0,0,0,0,0,0,0,0,4,0,0,0,0,6,0,0,0,11,5,0,0,1,0,0,0,0,4,0,0,0,0,0,4,0,0,0,0 | 0,0,0,6,0,0,0,0,5,0,0,0,0,8,3,0,4,2,0,3,0,0,5,4,2,0,0,4,0,1,0,0,0,0,0,0,8,0,0,0,0,0,0,5,6,0,11,4,8,0,0,0,0,0,0,0,0,0,0,4 | 1,5,1,3,0,1,2,0,0,0,5,0,0,0,0,0,0,0,0,0,8,0,0,0,0,0,0,0,0,3,0,0,0,3,0,0,0,0,3,0,3,0,0,0,1,0,0,0,0,4,5,0,0,0,0,0,2,0,0,0 | 0,0,0,0,0,0,0,0,3,0,0,1,0,0,0,2,0,0,0,0,0,0,0,7,0,0,0,0,0,0,0,0,0,0,0,5,4,0,0,0,0,5,4,5,0,0,0,0,0,0,10,0,0,0,0,0,0,0,0,0 | 0,0,0,0,0,0,0,0,1,0,0,0,0,0,7,0,0,3,2,15,0,0,0,1,2,0,5,1,0,0,0,0,0,0,0,0,0,0,0,0,0,0,0,0,0,0,0,0,0,0,4,0,0,0,0,0,0,0,0,0 | 0,0,0,0,0,7,3,0,0,0,0,0,0,0,0,0,0,0,0,0,0,0,0,0,0,0,0,0,5,0,0,1,0,0,5,0,0,5,0,0,0,7,6,0,5,0,2,0,8,2,3,0,0,1,0,5,0,0,0,0 | 0,0,4,2,0,2,0,0,3,0,0,0,0,0,0,0,0,0,0,0,0,2,0,0,0,0,0,0,0,0,0,0,0,0,0,0,0,0,1,0,0,0,0,0,0,2,0,0,0,0,0,0,0,0,0,0,4,2,0,0 | 0,0,0,0,0,0,0,0,0,0,0,0,0,0,0,5,0,0,0,0,4,0,12,0,1,0,3,0,0,0,2,0,0,0,0,0,2,0,0,7,0,0,1,0,0,14,0,0,0,0,0,2,0,0,0,0,0,0,0,0 | 0,0,0,0,0,0,0,0,0,0,4,0,0,0,0,0,0,0,0,0,0,3,0,0,0,0,0,0,0,0,0,0,2,0,2,0,5,0,0,0,0,0,0,0,0,0,0,0,0,0,0,0,0,3,0,0,0,0,0,0 | 0,0,0,0,0,0,4,0,0,0,0,0,0,0,0,0,0,0,0,0,0,0,0,8,0,10,0,0,2,1,0,0,0,2,0,0,0,13,0,0,5,0,0,0,0,0,0,0,0,0,0,13,0,0,0,4,0,0,0,8 | 0,0,0,0,0,0,0,0,0,0,0,0,0,0,0,0,5,4,4,0,0,0,0,0,0,0,0,0,0,0,0,0,0,0,0,0,0,0,0,0,0,0,0,0,0,0,0,0,0,0,0,8,4,0,0,0,0,0,0,0 | 0,0,0,0,0,0,0,0,0,2,0,0,3,0,2,0,0,0,1,0,0,0,0,0,0,0,4,0,6,0,0,0,3,0,0,2,0,0,0,0,12,0,0,0,0,0,2,0,0,0,8,0,0,5,5,0,0,0,0,0 | 2,0,0,0,0,0,0,3,0,0,0,3,0,0,0,4,0,0,0,0,0,0,0,0,0,0,0,0,0,0,0,0,0,3,4,0,0,4,0,0,5,0,4,0,1,0,0,0,0,0,0,0,0,0,0,5,0,0,0,0 | 5,0,0,0,0,0,3,4,0,3,0,0,0,0,0,0,0,0,2,0,0,4,0,0,0,0,0,0,0,8,0,4,0,2,3,0,0,4,0,0,2,0,0,4,4,0,0,0,0,1,0,0,0,0,0,0,0,0,0,0 | 0,0,0,0,8,0,8,0,0,0,0,0,0,0,0,0,10,1,1,0,0,0,0,2,0,0,0,4,0,0,0,0,0,0,8,0,4,0,0,0,0,0,0,0,0,0,0,0,0,3,0,0,4,0,0,2,0,4,5,0 | 0,0,0,3,0,0,0,8,0,0,4,0,0,0,0,0,4,0,5,0,0,0,0,3,3,0,0,0,0,0,1,0,0,0,0,0,0,0,0,3,0,0,0,0,0,0,0,0,0,0,0,0,0,0,0,0,0,0,0,4 | 0,0,6,0,0,0,5,0,0,0,0,0,0,0,7,0,0,0,0,0,0,0,0,0,0,0,0,0,3,0,0,0,0,0,0,0,0,1,1,0,1,0,14,0,0,0,0,0,0,0,0,0,0,0,0,5,0,0,0,0 |];
